W=7;
H=4;

MAX_TIME=12;
MAX_TRACKS=10;

TARGET=(1,7);

TRAINS=[(4,1,RIGHT),(4,7,LEFT),(2,4,DOWN)];
DECOYS=[];

INIT_POS=[
(1,1,ROCK),
(1,4,CORNER_DR),
(1,5,STRAIGHT_RL),
(1,6,STRAIGHT_RL),
(1,7,STRAIGHT_RL),
(2,1,ROCK),
(2,2,CORNER_DR),
(2,4,STRAIGHT_TD),
(2,7,ROCK),
(3,1,ROCK),
(3,7,ROCK),
(4,1,STRAIGHT_RL),
(4,4,ESWITCH_R_L_T),
(4,7,STRAIGHT_RL),
];
TUNNEL_PAIRS=[];

GATES=[
(1,4,1,false),
];
ACTIVATIONS=[
(2,2,1),
];

DSWITCHES=[];
STATIONS=[];
